
        $ From http://www.csplib.org/Problems/prob009/data/helmut.pdf
        $ Problem number 82
        $ Sequence length : 25
        language ESSENCE' 1.0
        letting sizemaster be 317
        letting sizes be sequence(1,5,6,7,8,9,16,17,19,32,37,40,42,47,49,52,59,75,81,92,94,110,112,113,126)
        